LicencjatAPP/reduction.cnf
c 1=W0_0 2=W0_1 3=W0_2 4=W0_3 5=x_0 6=x_1 7=x_2 8=x_3 
p cnf 8 22
1 2 3 4 0
-1 -2 0
-1 -3 0
-1 -4 0
-2 -3 0
-2 -4 0
-3 -4 0
5 6 7 8 0
-5 -6 0
-5 -7 0
-5 -8 0
-6 -7 0
-6 -8 0
-7 -8 0
-5 1 0
-6 2 0
-7 3 0
-8 4 0
-5 1 0
-6 2 0
-7 3 0
-8 4 0
