LicencjatAPP/reduction.txt
c 1=x_0 2=x_1 3=x_2 4=x_3 5=v_0 6=v_1 7=v_2 8=v_3 9=z_0 10=z_1 11=z_2 12=z_3 13=&0_0 14=&0_1 15=&0_2 16=&0_3 17=&1_0 18=&1_1 19=&1_2 20=&1_3 
p cnf 20 101
1 2 3 4 0
-1 -2 0
-1 -3 0
-1 -4 0
-2 -3 0
-2 -4 0
-3 -4 0
5 6 7 8 0
-5 -6 0
-5 -7 0
-5 -8 0
-6 -7 0
-6 -8 0
-7 -8 0
9 10 11 12 0
-9 -10 0
-9 -11 0
-9 -12 0
-10 -11 0
-10 -12 0
-11 -12 0
13 14 15 16 0
-13 -14 0
-13 -15 0
-13 -16 0
-14 -15 0
-14 -16 0
-15 -16 0
-1 -5 -9 13 0
-1 -5 -10 13 0
-1 -5 -11 13 0
-1 -5 -12 13 0
-1 -6 -9 13 0
-1 -6 -10 14 0
-1 -6 -11 14 0
-1 -6 -12 14 0
-1 -7 -9 13 0
-1 -7 -10 14 0
-1 -7 -11 15 0
-1 -7 -12 15 0
-1 -8 -9 13 0
-1 -8 -10 14 0
-1 -8 -11 15 0
-1 -8 -12 16 0
-2 -5 -9 13 0
-2 -5 -10 14 0
-2 -5 -11 14 0
-2 -5 -12 14 0
-2 -6 -9 14 0
-2 -6 -10 14 0
-2 -6 -11 14 0
-2 -6 -12 14 0
-2 -7 -9 14 0
-2 -7 -10 14 0
-2 -7 -11 15 0
-2 -7 -12 15 0
-2 -8 -9 14 0
-2 -8 -10 14 0
-2 -8 -11 15 0
-2 -8 -12 16 0
-3 -5 -9 13 0
-3 -5 -10 14 0
-3 -5 -11 15 0
-3 -5 -12 15 0
-3 -6 -9 14 0
-3 -6 -10 14 0
-3 -6 -11 15 0
-3 -6 -12 15 0
-3 -7 -9 15 0
-3 -7 -10 15 0
-3 -7 -11 15 0
-3 -7 -12 15 0
-3 -8 -9 15 0
-3 -8 -10 15 0
-3 -8 -11 15 0
-3 -8 -12 16 0
-4 -5 -9 13 0
-4 -5 -10 14 0
-4 -5 -11 15 0
-4 -5 -12 16 0
-4 -6 -9 14 0
-4 -6 -10 14 0
-4 -6 -11 15 0
-4 -6 -12 16 0
-4 -7 -9 15 0
-4 -7 -10 15 0
-4 -7 -11 15 0
-4 -7 -12 16 0
-4 -8 -9 16 0
-4 -8 -10 16 0
-4 -8 -11 16 0
-4 -8 -12 16 0
19 0
-13 17 0
13 -17 0
-14 18 0
14 -18 0
-15 19 0
15 -19 0
-16 20 0
16 -20 0
